<number of tasks>
250

<cycle time>
1000

<order strength>
0.896


<task times>
1 83
2 215
3 30
4 67
5 232
6 179
7 127
8 286
9 197
10 175
11 173
12 204
13 173
14 129
15 143
16 28
17 169
18 160
19 55
20 103
21 85
22 65
23 22
24 142
25 62
26 142
27 61
28 72
29 104
30 46
31 22
32 96
33 108
34 134
35 140
36 166
37 167
38 55
39 153
40 33
41 63
42 102
43 190
44 282
45 27
46 21
47 238
48 236
49 205
50 129
51 221
52 135
53 205
54 315
55 86
56 274
57 168
58 154
59 22
60 79
61 49
62 114
63 141
64 41
65 38
66 171
67 152
68 58
69 209
70 121
71 121
72 88
73 190
74 173
75 90
76 274
77 92
78 154
79 201
80 181
81 138
82 227
83 112
84 169
85 339
86 127
87 69
88 37
89 228
90 36
91 113
92 170
93 186
94 253
95 98
96 316
97 161
98 124
99 159
100 164
101 220
102 285
103 106
104 113
105 58
106 145
107 139
108 248
109 194
110 198
111 48
112 241
113 147
114 30
115 171
116 231
117 180
118 162
119 187
120 133
121 277
122 196
123 118
124 152
125 124
126 322
127 159
128 137
129 134
130 23
131 169
132 284
133 103
134 169
135 167
136 191
137 97
138 56
139 46
140 263
141 173
142 254
143 75
144 21
145 53
146 140
147 239
148 119
149 35
150 156
151 109
152 315
153 88
154 77
155 44
156 216
157 225
158 92
159 120
160 237
161 275
162 74
163 104
164 143
165 133
166 83
167 147
168 91
169 129
170 54
171 268
172 71
173 105
174 190
175 204
176 330
177 20
178 114
179 97
180 160
181 178
182 76
183 64
184 52
185 185
186 243
187 187
188 312
189 195
190 56
191 118
192 74
193 306
194 105
195 72
196 170
197 207
198 110
199 54
200 132
201 55
202 169
203 116
204 178
205 63
206 59
207 162
208 69
209 94
210 223
211 169
212 148
213 116
214 192
215 102
216 39
217 137
218 33
219 99
220 146
221 45
222 194
223 125
224 123
225 121
226 171
227 99
228 145
229 107
230 107
231 81
232 194
233 154
234 278
235 32
236 135
237 76
238 186
239 308
240 81
241 143
242 103
243 322
244 90
245 119
246 323
247 179
248 32
249 146
250 211

<precedence relations>
1,5
1,6
1,7
2,5
2,6
2,7
3,5
3,6
3,7
4,5
4,6
5,8
5,9
5,10
5,11
5,12
6,8
6,9
6,10
6,11
6,12
7,8
7,9
7,10
7,11
7,12
8,13
8,14
8,15
8,16
8,17
9,13
9,14
9,15
9,16
9,17
10,13
10,14
10,15
10,16
10,17
11,23
11,24
12,13
12,14
12,15
12,16
12,17
13,18
13,19
13,20
13,21
14,18
14,19
14,20
14,21
15,18
15,19
15,20
15,21
16,18
16,19
16,20
16,21
17,18
17,19
17,20
17,21
18,22
18,23
18,24
19,22
19,23
19,24
20,22
20,23
20,24
21,22
21,23
21,24
22,25
22,26
22,27
22,28
23,25
23,26
23,27
23,28
24,25
24,26
24,27
24,28
25,29
25,30
25,31
26,29
26,30
26,31
26,32
26,33
27,29
27,30
27,31
27,32
28,29
28,33
29,34
29,35
29,36
29,39
29,40
30,36
30,37
30,38
30,41
31,75
31,81
32,34
32,40
32,41
33,34
34,42
34,44
35,42
35,43
36,42
36,43
36,44
37,42
37,43
37,44
38,42
38,43
38,44
39,42
39,43
39,44
40,42
40,43
40,44
41,42
41,43
42,45
42,46
42,47
43,45
43,46
43,47
44,45
44,46
44,47
45,48
45,49
45,50
45,51
45,52
46,48
46,49
46,50
47,128
48,62
49,55
50,53
50,54
51,104
52,53
52,54
52,55
52,56
53,57
53,58
53,59
54,57
54,58
54,59
55,57
55,59
56,57
56,58
56,59
57,60
57,61
57,62
57,63
57,64
57,65
58,60
58,61
58,62
59,63
60,70
60,74
61,66
61,67
61,75
62,66
62,67
62,68
62,69
63,69
63,70
63,71
64,66
65,66
65,68
65,73
66,72
66,74
67,122
68,72
68,75
69,72
69,73
69,74
70,72
71,72
71,73
71,74
71,75
72,76
72,77
72,78
72,79
72,80
72,81
73,76
73,77
73,78
73,81
74,77
74,78
75,79
75,80
76,82
76,83
76,84
76,85
77,83
77,106
78,82
78,83
79,102
80,82
80,84
81,154
82,86
82,87
83,127
83,130
84,87
84,88
84,89
85,88
86,90
86,91
87,131
87,132
87,133
88,90
88,91
88,92
88,93
88,94
89,90
89,91
89,92
89,93
89,94
90,95
90,96
90,97
90,98
91,95
91,98
92,95
92,96
93,125
94,191
95,101
96,99
96,100
96,101
96,102
97,99
97,101
97,102
98,99
98,100
98,101
98,102
99,104
99,105
99,106
100,103
101,103
101,104
102,103
102,104
103,107
103,108
103,109
104,107
104,108
104,109
104,110
105,107
105,108
105,109
105,110
106,107
106,108
106,109
106,110
107,111
107,112
107,113
107,114
108,111
108,114
108,115
109,112
109,119
110,111
110,112
110,113
110,115
110,125
111,116
112,116
112,123
113,116
113,117
114,117
114,118
114,119
115,117
116,121
116,122
116,124
117,120
117,123
118,120
118,121
118,122
118,123
118,124
118,125
119,120
119,121
119,122
119,125
120,126
120,127
120,128
121,126
121,130
122,126
122,127
122,128
122,129
122,130
123,126
124,129
124,136
125,126
125,127
125,128
125,129
125,130
126,131
126,132
126,133
127,131
127,132
127,133
128,131
128,132
129,131
130,131
130,132
130,133
131,134
131,135
131,137
132,136
133,150
134,142
134,145
135,138
135,139
135,141
136,138
136,140
137,181
138,143
138,147
138,154
139,144
139,145
140,146
141,143
142,143
142,144
143,148
143,150
144,148
144,149
144,150
145,163
146,189
147,161
147,163
148,151
148,152
148,153
149,154
150,151
150,155
150,156
151,157
152,171
153,157
153,158
153,159
154,157
154,161
155,170
155,174
155,175
155,177
156,157
156,158
156,159
156,160
156,161
157,162
157,163
157,164
158,162
158,163
158,164
159,163
159,179
160,162
160,163
161,162
161,172
162,165
163,166
163,167
163,168
163,169
164,238
165,170
166,210
167,172
167,184
168,171
169,173
169,212
170,176
170,180
171,174
171,175
171,177
172,217
172,221
172,226
175,201
175,205
176,178
176,179
177,180
178,181
178,182
179,204
180,181
180,182
181,183
181,184
182,216
183,185
183,186
183,189
183,202
184,185
184,186
184,187
184,188
184,190
185,197
186,192
188,191
188,200
188,201
189,194
190,193
191,196
191,197
191,206
192,195
192,200
192,212
193,195
193,196
193,199
194,198
194,200
195,207
196,202
197,204
197,205
197,208
198,201
198,203
198,206
199,204
200,203
200,211
201,207
201,211
201,223
203,208
203,236
203,247
204,209
204,210
205,207
205,226
206,233
207,219
207,232
207,239
208,214
209,211
209,213
209,214
210,212
211,216
212,215
212,228
213,217
213,245
214,218
214,248
215,223
216,219
216,221
216,222
216,225
217,219
217,233
218,220
218,224
219,241
220,230
220,244
221,227
221,228
222,226
222,232
222,233
223,227
223,229
223,237
225,231
226,234
227,238
227,239
229,241
230,235
231,237
232,236
234,243
235,240
236,250
237,239
237,241
238,244
238,246
238,247
239,243
239,246
240,242
240,245
241,244
241,247
242,250
243,249
246,248

<end>
